Minimize

x_0 + x_1 + x_2 + x_3 + x_4 + x_5 + x_6 + x_7 + x_8


Subject To

a0: 2 x_0 + 3 x_1 + 5 x_2 + 8 x_3 + 13 x_4 + 21 x_5 + 34 x_6 + 55 x_7 + 89 x_8 = 220



Bounds


x_0 <= 110
x_1 <= 73
x_2 <= 44
x_3 <= 27
x_4 <= 16
x_5 <= 10
x_6 <= 6
x_7 <= 4
x_8 <= 2




General

 x_0 x_1 x_2 x_3 x_4 x_5 x_6 x_7 x_8



End
